NSW = 100
IBRION = 6
ISIF = 5
LWAVE = .FALSE.
LCHARG = .FALSE.
ENCUT = 400.
#POTIM=0.02
#AMIN = 0.01
LREAL= Auto
ALGO = F
#NELM = 300
#NELMDL = -15
#EDIFF = 1e-6
#KPAR = 1
#NCORE = 64
#NPAR = 4
