MoNbTa
1.0
             8.32581548              0.00000000              0.00000000
             0.00000000             28.84147290              0.00000000
             0.00000000              0.00000000              5.88724104
Mo Nb Ta
24 24 24
Direct
            1.00000000             1.00000000             1.00000000 
            0.66666600             1.00000000             0.33333300 
            1.00000000             1.00000000             0.50000000 
            1.00000100             0.16666667             1.00000050 
            0.33333400             0.16666667             0.16666700 
            0.66666700             0.16666667             0.33333350 
            0.50000100             0.25000000             1.00000050 
            0.83333400             0.25000000             0.16666700 
            0.50000100             0.25000000             0.50000050 
            0.33333500             0.33333333             0.16666750 
            0.66666800             0.33333333             0.33333400 
            0.50000200             0.41666667             1.00000100 
            0.50000200             0.41666667             0.50000100 
            0.33333600             0.50000000             0.16666800 
            0.50000300             0.58333333             1.00000150 
            1.00000300             0.50000000             0.50000150 
            0.66666900             0.50000000             0.83333450 
            0.83333700             0.75000000             0.16666850 
            0.16667000             0.58333333             0.83333500 
            1.00000500             0.83333333             1.00000250 
            0.50000500             0.91666667             1.00000250 
            1.00000500             0.83333333             0.50000250 
            0.33333800             0.83333333             0.66666900 
            0.83333800             0.91666667             0.66666900 
            0.50000000             0.08333333             1.00000000 
            0.16666700             0.08333333             0.33333350 
            0.50000000             0.08333333             0.50000000 
            1.00000100             0.16666667             0.50000050 
            0.33333400             0.16666667             0.66666700 
            0.83333500             0.41666667             0.16666750 
            0.66666800             0.33333333             0.83333400 
            1.00000300             0.50000000             1.00000150 
            0.83333600             0.58333333             0.16666800 
            0.16666900             0.41666667             0.83333450 
            0.33333600             0.50000000             0.66666800 
            0.16667000             0.58333333             0.33333500 
            0.50000300             0.58333333             0.50000150 
            0.33333700             0.66666667             0.16666850 
            0.66667000             0.66666667             0.33333500 
            0.33333700             0.66666667             0.66666850 
            0.66667000             0.66666667             0.83333500 
            0.16667100             0.75000000             0.33333550 
            0.50000400             0.75000000             0.50000200 
            0.33333800             0.83333333             0.16666900 
            0.83333800             0.91666667             0.16666900 
            0.66667100             0.83333333             0.83333550 
            0.16667200             0.91666667             0.33333600 
            0.16667200             0.91666667             0.83333600 
            0.33333300             1.00000000             0.16666650 
            0.83333300             0.08333333             0.16666650 
            0.33333300             1.00000000             0.66666650 
            0.66666600             1.00000000             0.83333300 
            0.83333300             0.08333333             0.66666650 
            0.16666700             0.08333333             0.83333350 
            0.66666700             0.16666667             0.83333350 
            0.16666800             0.25000000             0.33333400 
            0.83333400             0.25000000             0.66666700 
            1.00000200             0.33333333             1.00000100 
            0.16666800             0.25000000             0.83333400 
            1.00000200             0.33333333             0.50000100 
            0.33333500             0.33333333             0.66666750 
            0.16666900             0.41666667             0.33333450 
            0.83333500             0.41666667             0.66666750 
            0.66666900             0.50000000             0.33333450 
            0.83333600             0.58333333             0.66666800 
            1.00000400             0.66666667             1.00000200 
            0.50000400             0.75000000             1.00000200 
            1.00000400             0.66666667             0.50000200 
            0.83333700             0.75000000             0.66666850 
            0.66667100             0.83333333             0.33333550 
            0.16667100             0.75000000             0.83333550 
            0.50000500             0.91666667             0.50000250 
