NSW = 100
IBRION = 1
ISIF = 2
#ISPIN = 2
LWAVE = .FALSE.
LCHARG = .FALSE.
ENCUT = 400.
#ISYM = 2
LREAL= Auto
#ICHARG = 2
ALGO = F
#EDIFF = 1e-6
KPAR = 1
NCORE = 64
NPAR = 4
